units		real
dimension 	3
boundary 	p p p
atom_style 	atomic
pair_style 	sw

timestep 10.0

read_data minimized.data

variable confining_pressure equal 100
variable production_temperature equal 263.15
variable t_damp equal 2000
variable p_damp equal 20000


pair_coeff * * water_methane_hydrate.sw O C

group water 	type 	1
group methane 	type 	2

neigh_modify delay 0 every 1 check yes

change_box all triclinic
fix npt all npt temp ${production_temperature} ${production_temperature} ${t_damp} x ${confining_pressure} ${confining_pressure} ${p_damp} y ${confining_pressure} ${confining_pressure} ${p_damp} z ${confining_pressure} ${confining_pressure} ${p_damp}

velocity all create $(1.8*v_production_temperature) 35134623 loop geom

thermo 10
thermo_style custom step time temp press etotal pxx pyy pzz pxy pxz pyz lx ly lz xy xz yz 

run 100
thermo 100
run 1000

fix deform all deform 1 xz delta 100
run 500000
